NAME 
ROWS
 N  OBJ
 L  R0      
 E  R1      
 E  R2      
 E  R3      
 E  R4      
 E  R5      
 E  R6      
 E  R7      
 E  R8      
 E  R9      
 E  R10     
 E  R11     
 E  R12     
 E  R13     
 E  R14     
 E  R15     
 E  R16     
 E  R17     
 E  R18     
 E  R19     
 E  R20     
 E  R21     
 E  R22     
 E  R23     
 E  R24     
 E  R25     
 E  R26     
 E  R27     
 E  R28     
 E  R29     
 E  R30     
 E  R31     
 E  R32     
 E  R33     
 E  R34     
 E  R35     
 E  R36     
 E  R37     
 E  R38     
 E  R39     
 E  R40     
COLUMNS
    MARKER    'MARKER'                 'INTORG'
    I0(3)     OBJ       131
    I0(3)     R0        2
    I0(3)     R1        16
    I0(3)     R40       1
    I1(3)     OBJ       137
    I1(3)     R0        -25
    I1(3)     R2        13
    I1(3)     R40       1
    I2(3)     OBJ       138
    I2(3)     R0        -50
    I2(3)     R3        12
    I2(3)     R40       1
    I3(3)     OBJ       -139
    I3(3)     R0        -60
    I3(3)     R4        8
    I3(3)     R40       1
    I4(3)     OBJ       38
    I4(3)     R0        164
    I4(3)     R5        16
    I4(3)     R40       1
    I5(3)     OBJ       -27
    I5(3)     R0        80
    I5(3)     R6        13
    I5(3)     R40       1
    I6(3)     OBJ       163
    I6(3)     R0        -12
    I6(3)     R7        16
    I6(3)     R40       1
    I7(3)     OBJ       137
    I7(3)     R0        -12
    I7(3)     R8        19
    I7(3)     R40       1
    I8(3)     OBJ       -10
    I8(3)     R0        34
    I8(3)     R9        11
    I8(3)     R40       1
    I9(3)     OBJ       31
    I9(3)     R0        196
    I9(3)     R10       9
    I9(3)     R40       1
    I10(3)    OBJ       -108
    I10(3)    R0        27
    I10(3)    R11       11
    I10(3)    R40       1
    I11(3)    OBJ       -114
    I11(3)    R0        63
    I11(3)    R12       18
    I11(3)    R40       1
    I12(3)    OBJ       -80
    I12(3)    R0        162
    I12(3)    R13       13
    I12(3)    R40       1
    I13(3)    OBJ       -53
    I13(3)    R0        3
    I13(3)    R14       2
    I13(3)    R40       1
    I14(3)    OBJ       12
    I14(3)    R0        -84
    I14(3)    R15       16
    I14(3)    R40       1
    I15(3)    OBJ       152
    I15(3)    R0        -134
    I15(3)    R16       1
    I15(3)    R40       1
    I16(3)    OBJ       -100
    I16(3)    R0        -38
    I16(3)    R17       19
    I16(3)    R40       1
    I17(3)    OBJ       -110
    I17(3)    R0        -91
    I17(3)    R18       9
    I17(3)    R40       1
    I18(3)    OBJ       62
    I18(3)    R0        133
    I18(3)    R19       5
    I18(3)    R40       1
    I19(3)    OBJ       -6
    I19(3)    R0        176
    I19(3)    R20       2
    I19(3)    R40       1
    I20(3)    OBJ       -189
    I20(3)    R0        -129
    I20(3)    R21       10
    I20(3)    R40       1
    I21(2)    OBJ       149
    I21(2)    R0        -34
    I21(2)    R40       1
    I22(3)    OBJ       25
    I22(3)    R0        124
    I22(3)    R23       6
    I22(3)    R40       1
    I23(3)    OBJ       138
    I23(3)    R0        154
    I23(3)    R24       19
    I23(3)    R40       1
    I24(3)    OBJ       -78
    I24(3)    R0        -4
    I24(3)    R25       2
    I24(3)    R40       1
    I25(3)    OBJ       -197
    I25(3)    R0        -114
    I25(3)    R26       -1
    I25(3)    R40       1
    I26(3)    OBJ       23
    I26(3)    R0        85
    I26(3)    R27       19
    I26(3)    R40       1
    I27(3)    OBJ       137
    I27(3)    R0        -53
    I27(3)    R28       11
    I27(3)    R40       1
    I28(3)    OBJ       2
    I28(3)    R0        -161
    I28(3)    R29       4
    I28(3)    R40       1
    I29(3)    OBJ       148
    I29(3)    R0        183
    I29(3)    R30       16
    I29(3)    R40       1
    I30(3)    OBJ       199
    I30(3)    R0        73
    I30(3)    R31       2
    I30(3)    R40       1
    I31(3)    OBJ       31
    I31(3)    R0        86
    I31(3)    R32       10
    I31(3)    R40       1
    I32(3)    OBJ       -138
    I32(3)    R0        71
    I32(3)    R33       19
    I32(3)    R40       1
    I33(3)    OBJ       54
    I33(3)    R0        -16
    I33(3)    R34       13
    I33(3)    R40       1
    I34(3)    OBJ       -110
    I34(3)    R0        -12
    I34(3)    R35       9
    I34(3)    R40       1
    I35(2)    OBJ       -192
    I35(2)    R0        -156
    I35(2)    R40       1
    I36(3)    OBJ       -132
    I36(3)    R0        -63
    I36(3)    R37       11
    I36(3)    R40       1
    I37(3)    OBJ       50
    I37(3)    R0        -70
    I37(3)    R38       16
    I37(3)    R40       1
    MARKER    'MARKER'                 'INTEND'
    C38(38)   OBJ       2
    C38(38)   R0        6
    C38(38)   R1        6
    C38(38)   R2        15
    C38(38)   R3        16
    C38(38)   R4        5
    C38(38)   R5        10
    C38(38)   R6        8
    C38(38)   R7        12
    C38(38)   R8        13
    C38(38)   R9        16
    C38(38)   R10       10
    C38(38)   R11       4
    C38(38)   R12       2
    C38(38)   R13       5
    C38(38)   R14       -1
    C38(38)   R15       15
    C38(38)   R16       19
    C38(38)   R17       6
    C38(38)   R18       5
    C38(38)   R19       1
    C38(38)   R20       15
    C38(38)   R21       1
    C38(38)   R22       14
    C38(38)   R23       14
    C38(38)   R24       10
    C38(38)   R25       16
    C38(38)   R26       -1
    C38(38)   R28       7
    C38(38)   R29       19
    C38(38)   R30       14
    C38(38)   R31       2
    C38(38)   R32       10
    C38(38)   R33       6
    C38(38)   R35       18
    C38(38)   R36       17
    C38(38)   R37       6
    C38(38)   R38       6
    C38(38)   R39       13
    C39(39)   OBJ       -6
    C39(39)   R0        -2
    C39(39)   R1        11
    C39(39)   R2        11
    C39(39)   R3        13
    C39(39)   R4        1
    C39(39)   R5        12
    C39(39)   R6        7
    C39(39)   R7        4
    C39(39)   R8        9
    C39(39)   R9        10
    C39(39)   R10       12
    C39(39)   R11       18
    C39(39)   R12       7
    C39(39)   R13       15
    C39(39)   R14       13
    C39(39)   R15       1
    C39(39)   R16       16
    C39(39)   R17       1
    C39(39)   R18       11
    C39(39)   R19       5
    C39(39)   R20       19
    C39(39)   R21       11
    C39(39)   R22       5
    C39(39)   R23       9
    C39(39)   R24       10
    C39(39)   R25       6
    C39(39)   R26       16
    C39(39)   R27       13
    C39(39)   R28       -1
    C39(39)   R29       4
    C39(39)   R30       13
    C39(39)   R31       5
    C39(39)   R32       -1
    C39(39)   R33       12
    C39(39)   R34       15
    C39(39)   R35       18
    C39(39)   R36       4
    C39(39)   R37       14
    C39(39)   R39       11
    C40(1)    R1        1
    C41(1)    R2        1
    C42(1)    R3        1
    C43(1)    R4        1
    C44(1)    R5        1
    C45(1)    R6        1
    C46(1)    R7        1
    C47(1)    R8        1
    C48(1)    R9        1
    C49(1)    R10       1
    C50(1)    R11       1
    C51(1)    R12       1
    C52(1)    R13       1
    C53(1)    R14       1
    C54(1)    R15       1
    C55(1)    R16       1
    C56(1)    R17       1
    C57(1)    R18       1
    C58(1)    R19       1
    C59(1)    R20       1
    C60(1)    R21       1
    C61(1)    R22       1
    C62(1)    R23       1
    C63(1)    R24       1
    C64(1)    R25       1
    C65(1)    R26       1
    C66(1)    R27       1
    C67(1)    R28       1
    C68(1)    R29       1
    C69(1)    R30       1
    C70(1)    R31       1
    C71(1)    R32       1
    C72(1)    R33       1
    C73(1)    R34       1
    C74(1)    R35       1
    C75(1)    R36       1
    C76(1)    R37       1
    C77(1)    R38       1
    C78(1)    R39       1
    C79(1)    R40       1
RHS
    RHS1      R0        -346
    RHS1      R1        85
    RHS1      R2        79
    RHS1      R3        81
    RHS1      R4        93
    RHS1      R5        97
    RHS1      R6        60
    RHS1      R7        70
    RHS1      R8        82
    RHS1      R9        58
    RHS1      R10       56
    RHS1      R11       66
    RHS1      R12       65
    RHS1      R13       92
    RHS1      R14       73
    RHS1      R15       64
    RHS1      R16       86
    RHS1      R17       55
    RHS1      R18       75
    RHS1      R19       90
    RHS1      R20       87
    RHS1      R21       72
    RHS1      R22       87
    RHS1      R23       96
    RHS1      R24       63
    RHS1      R25       93
    RHS1      R26       82
    RHS1      R27       97
    RHS1      R28       83
    RHS1      R29       55
    RHS1      R30       68
    RHS1      R31       62
    RHS1      R32       56
    RHS1      R33       68
    RHS1      R34       82
    RHS1      R35       79
    RHS1      R36       91
    RHS1      R37       53
    RHS1      R38       54
    RHS1      R39       70
    RHS1      R40       12
BOUNDS
 UP BND1      I0(3)     1
 UP BND1      I1(3)     1
 UP BND1      I2(3)     1
 UP BND1      I3(3)     1
 UP BND1      I4(3)     1
 UP BND1      I5(3)     1
 UP BND1      I6(3)     1
 UP BND1      I7(3)     1
 UP BND1      I8(3)     1
 UP BND1      I9(3)     1
 UP BND1      I10(3)    1
 UP BND1      I11(3)    1
 UP BND1      I12(3)    1
 UP BND1      I13(3)    1
 UP BND1      I14(3)    1
 UP BND1      I15(3)    1
 UP BND1      I16(3)    1
 UP BND1      I17(3)    1
 UP BND1      I18(3)    1
 UP BND1      I19(3)    1
 UP BND1      I20(3)    1
 UP BND1      I21(2)    1
 UP BND1      I22(3)    1
 UP BND1      I23(3)    1
 UP BND1      I24(3)    1
 UP BND1      I25(3)    1
 UP BND1      I26(3)    1
 UP BND1      I27(3)    1
 UP BND1      I28(3)    1
 UP BND1      I29(3)    1
 UP BND1      I30(3)    1
 UP BND1      I31(3)    1
 UP BND1      I32(3)    1
 UP BND1      I33(3)    1
 UP BND1      I34(3)    1
 UP BND1      I35(2)    1
 UP BND1      I36(3)    1
 UP BND1      I37(3)    1
ENDATA
